p cnf 47 165
1 2 -3 0
-1 -2 -3 0
1 -2 3 0
-1 2 3 0
6 4 0
6 -5 0
-4 5 -6 0
-8 -6 0
-8 -7 0
6 7 8 0
-3 -8 -9 0
3 8 -9 0
-3 8 9 0
3 -8 9 0
-4 -1 -10 0
4 1 -10 0
-4 1 10 0
4 -1 10 0
1 11 0
-1 11 0
-10 11 -12 0
10 -11 -12 0
-10 -11 12 0
10 11 12 0
9 -12 -13 0
-9 12 -13 0
9 12 13 0
-9 -12 13 0
-14 2 0
-14 -4 0
-2 4 14 0
15 14 0
15 -4 0
-14 4 -15 0
16 -1 0
16 7 0
1 -7 -16 0
-19 -17 0
-19 18 0
17 -18 19 0
-20 -16 0
-20 19 0
16 -19 20 0
-15 -20 -21 0
15 20 -21 0
-15 20 21 0
15 -20 21 0
22 13 0
22 -21 0
-13 21 -22 0
-7 4 -23 0
7 -4 -23 0
-7 -4 23 0
7 4 23 0
-25 -2 0
-25 -5 0
2 5 25 0
-24 -25 -26 0
24 25 -26 0
-24 25 26 0
24 -25 26 0
-27 -23 0
-27 26 0
23 -26 27 0
29 -28 0
29 -17 0
28 17 -29 0
-27 29 -30 0
27 -29 -30 0
-27 -29 30 0
27 29 30 0
-31 22 0
-31 -30 0
-22 30 31 0
-32 -14 0
-32 -18 0
14 18 32 0
18 17 -33 0
-18 -17 -33 0
18 -17 33 0
-18 17 33 0
-33 -17 -34 0
33 17 -34 0
-33 17 34 0
33 -17 34 0
34 5 -35 0
-34 -5 -35 0
34 -5 35 0
-34 5 35 0
-36 5 0
-36 -18 0
-5 18 36 0
37 18 0
37 36 0
-18 -36 -37 0
38 -35 0
38 -37 0
35 37 -38 0
36 33 -39 0
-36 -33 -39 0
36 -33 39 0
-36 33 39 0
-28 -5 -40 0
28 5 -40 0
-28 5 40 0
28 -5 40 0
41 -39 0
41 -40 0
39 40 -41 0
42 24 -43 0
-42 -24 -43 0
42 -24 43 0
-42 24 43 0
44 41 0
44 43 0
-41 -43 -44 0
38 44 -45 0
-38 -44 -45 0
38 -44 45 0
-38 44 45 0
46 32 0
46 45 0
-32 -45 -46 0
47 31 0
47 46 0
-31 -46 -47 0
-14 -16 -1 -18 46 -42 0
-27 -21 -13 -22 0
18 -26 39 -7 -22 -29 0
46 -15 -37 31 -30 -13 0
-8 -39 2 -45 22 0
-14 46 -28 0
-29 -3 20 -24 22 0
-32 -4 10 0
-2 -25 -34 42 -14 0
15 -11 19 0
-37 -22 -20 0
13 34 39 11 -33 0
-25 -11 43 -2 19 0
-26 2 25 34 0
-46 -15 20 26 0
27 46 0
-20 34 8 0
-26 -22 -12 0
38 -18 -32 0
-35 34 -2 -41 -26 -44 0
-30 -25 0
13 25 -41 40 0
30 11 0
-35 12 0
13 -28 -41 23 0
-8 30 -16 -28 14 0
39 22 -40 33 0
-42 -4 -41 -28 3 36 0
-14 3 10 -34 -41 0
-46 -15 -8 4 0
-35 -3 23 14 24 26 0
41 -20 -17 25 -16 -13 0
17 11 45 -18 0
-37 -18 -31 0
10 -20 0
29 15 46 0
34 7 6 -2 -41 32 0
-26 -43 19 -33 0
47 0
